12
00 07 08 07 00 07 08 07 00 07 08 07  
05 00 08 08 05 00 08 08 05 00 08 08  
09 06 00 09 09 06 00 09 09 06 00 09  
10 07 10 00 10 07 10 00 10 07 10 00   
00 07 08 07 00 07 08 07 00 07 08 07 
05 00 08 08 05 00 08 08 05 00 08 08 
09 06 00 09 09 06 00 09 09 06 00 09 
10 07 10 00 10 07 10 00 10 07 10 00 
00 07 08 07 00 07 08 07 00 07 08 07 
05 00 08 08 05 00 08 08 05 00 08 08 
09 06 00 09 09 06 00 09 09 06 00 09 
10 07 10 00 10 07 10 00 10 07 10 00 


